<number of tasks>
70

<cycle time>
251

<task times>
1 17
2 66
3 54
4 52
5 6
6 88
7 21
8 128
9 68
10 70
11 85
12 21
13 134
14 135
15 94
16 90
17 50
18 143
19 19
20 54
21 50
22 40
23 73
24 12
25 152
26 42
27 45
28 74
29 26
30 11
31 31
32 50
33 102
34 46
35 35
36 40
37 2
38 1
39 3
40 13
41 16
42 25
43 21
44 43
45 30
46 83
47 89
48 56
49 59
50 43
51 11
52 26
53 44
54 121
55 38
56 68
57 22
58 7
59 16
60 32
61 25
62 27
63 156
64 28
65 15
66 26
67 18
68 72
69 23
70 27

<task process alternatives>
1: 14,15 ; 21,8
2: 53,15 ; 80,8
3: 44,15 ; 65,8
4: 42,15 ; 63,8
5: 5,15 ; 8,8
6: 71,15 ; 106,8
7: 17,15 ; 26,8
8: 103,15 ; 154,8
9: 55,15 ; 82,8
10: 56,15 ; 84,8
11: 68,15 ; 102,8
12: 17,15 ; 26,8
13: 108,15 ; 161,8
14: 108,15 ; 162,8
15: 76,15 ; 113,8
16: 72,15 ; 108,8
17: 40,15 ; 60,8
18: 115,15 ; 172,8
19: 16,15 ; 23,8
20: 44,15 ; 65,8
21: 40,15 ; 60,8
22: 32,15 ; 48,8
23: 59,15 ; 88,8
24: 10,15 ; 15,8
25: 122,15 ; 183,8
26: 34,15 ; 51,8
27: 36,15 ; 54,8
28: 60,15 ; 89,8
29: 21,15 ; 32,8
30: 9,15 ; 14,8
31: 25,15 ; 38,8
32: 40,15 ; 60,8
33: 82,15 ; 123,8
34: 37,15 ; 56,8
35: 28,15 ; 42,8
36: 32,15 ; 48,8
37: 2,15 ; 3,8
38: 1,15 ; 2,8
39: 3,15 ; 4,8
40: 11,15 ; 16,8
41: 13,15 ; 20,8
42: 20,15 ; 30,8
43: 17,15 ; 26,8
44: 35,15 ; 52,8
45: 24,15 ; 36,8
46: 67,15 ; 100,8
47: 72,15 ; 107,8
48: 45,15 ; 68,8
49: 48,15 ; 71,8
50: 35,15 ; 52,8
51: 9,15 ; 14,8
52: 21,15 ; 32,8
53: 36,15 ; 53,8
54: 97,15 ; 146,8
55: 31,15 ; 46,8
56: 55,15 ; 82,8
57: 18,15 ; 27,8
58: 6,15 ; 9,8
59: 13,15 ; 20,8
60: 26,15 ; 39,8
61: 20,15 ; 30,8
62: 22,15 ; 33,8
63: 125,15 ; 188,8
64: 23,15 ; 34,8
65: 12,15 ; 18,8
66: 21,15 ; 32,8
67: 15,15 ; 22,8
68: 58,15 ; 87,8
69: 19,15 ; 28,8
70: 22,15 ; 33,8

<incompatible tasks>
49,22
21,4
66,9
46,65
14,59
46,38
40,67
59,28
14,66
31,57

<precedence relations>
44,45
35,51
23,25
41,42
18,19
35,44
19,57
9,10
5,30
15,16
25,27
42,43
38,39
48,49
16,17
47,50
64,66
25,29
12,13
22,23
23,31
49,50
35,60
45,46
13,23
51,52
46,47
35,53
23,33
35,62
1,69
19,20
24,25
20,21
43,50
61,65
14,23
40,42
57,58
19,22
53,54
27,35
30,31
25,26
4,6
29,35
31,32
35,48
54,55
64,65
25,28
6,8
5,6
1,2
12,14
1,41
35,61
2,3
62,63
3,4
58,59
3,68
35,36
8,12
1,70
36,37
63,64
59,60
26,35
52,54
35,56
10,11
5,24
37,38
28,35
32,35
16,18
33,34
64,67
4,7
21,23
39,40
17,19
34,35
11,12
7,8

<number of task attributes>
3

<task attribute values>
1,1:70
1,2:64
1,3:34
2,1:22
2,2:47
2,3:45
3,2:9
3,3:95
4,1:69
4,2:29
4,3:4
5,1:91
5,2:84
5,3:51
6,1:7
6,2:15
6,3:25
7,1:7
7,2:69
7,3:19
8,1:74
8,2:8
8,3:35
9,1:15
9,2:4
10,1:14
10,2:14
11,1:1
11,3:10
12,1:4
12,2:5
12,3:9
13,1:81
13,2:7
13,3:58
14,1:9
14,2:35
14,3:28
15,1:25
15,2:27
15,3:9
16,1:2
16,2:3
16,3:27
17,1:2
17,2:3
17,3:24
18,1:76
18,2:47
18,3:17
19,1:1
19,2:1
19,3:15
20,1:5
20,2:2
20,3:16
21,1:1
21,2:64
21,3:36
22,1:5
22,2:2
22,3:5
23,1:29
23,2:64
23,3:1
24,1:61
24,3:4
25,1:79
25,2:49
25,3:65
26,1:42
26,2:82
26,3:68
27,1:6
27,2:15
27,3:13
28,1:15
28,2:41
28,3:3
29,1:81
29,2:98
29,3:57
30,1:8
30,2:5
30,3:11
31,3:16
32,1:11
32,2:1
32,3:24
33,1:35
33,3:10
34,1:15
34,2:1
34,3:1
35,1:7
35,3:12
36,3:6
37,1:21
37,2:83
37,3:77
38,1:29
38,2:4
38,3:11
39,1:25
39,2:7
39,3:9
40,1:17
40,2:1
40,3:1
41,2:9
42,1:53
42,2:97
42,3:16
43,1:72
43,2:65
43,3:24
46,3:52
47,1:5
47,2:6
47,3:27
48,1:26
48,2:2
48,3:24
49,3:1
50,1:14
50,2:18
50,3:31
51,1:3
51,2:92
51,3:32
52,1:20
52,2:5
52,3:24
53,1:7
54,1:48
54,2:2
54,3:19
55,1:1
55,2:2
55,3:15
56,1:12
56,3:19
57,2:2
57,3:4
58,1:1
58,2:34
59,1:1
59,3:6
60,2:2
60,3:1
61,1:15
61,3:4
63,2:1
64,1:16
64,3:2
65,2:7
65,3:2
66,1:2
68,3:11
69,1:1
69,2:6
69,3:23
70,1:8
70,2:23

<attribute bounds per station>
1:100
2:100
3:100

<incompatible tasks>
1,13
1,20
2,22
2,44
2,62
2,65
2,68
3,33
3,50
4,22
4,32
4,39
4,55
4,62
5,48
6,19
6,25
6,27
6,45
6,56
6,63
6,66
7,32
7,33
7,34
7,56
8,26
8,29
8,33
8,43
8,44
8,46
8,61
9,54
9,66
10,48
11,26
11,29
11,66
12,19
12,36
12,58
13,14
13,15
13,59
13,68
14,33
14,53
15,27
16,21
16,33
17,18
17,35
17,56
17,68
18,25
18,42
18,51
19,33
19,49
19,54
22,43
22,59
23,54
23,57
23,64
24,45
24,55
26,39
26,66
28,53
28,56
28,57
29,31
29,56
29,60
30,43
30,66
31,32
31,45
33,53
33,56
33,63
35,68
37,57
38,50
38,54
38,62
39,41
39,51
40,69
41,58
43,44
43,52
43,61
43,63
43,70
44,48
45,48
47,68
48,55
48,66
49,70
50,70
51,59
51,69
52,69
53,62
54,59
54,64
54,66
55,70
57,64
61,66
62,68
66,69
69,70

<optimal SALBP-1 value>
14

<rand seed>
236278236

<end>
